p cnf 20 30
2 18 8 0
-20 -11 9 0
5 6 12 0
14 8 -11 0
10 -18 12 0
-14 -5 -18 0
-20 -8 -11 0
6 2 -14 0
-1 16 4 0
5 1 8 0
-5 4 10 0
-20 -19 3 0
7 8 18 0
15 -2 -12 0
-4 9 -10 0
-8 -1 -5 0
-17 16 15 0
7 14 -13 0
12 -18 5 0
4 -1 11 0
-5 6 -14 0
3 -2 -20 0
2 -19 -12 0
8 18 16 0
-14 -11 13 0
19 2 4 0
17 -7 -20 0
7 1 -11 0
7 -16 18 0
18 -6 9 0
